! PBE def2-TZVP

* xyz 0 1
  As    -0.000070    0.286431   -0.000000
  F      0.002460    1.997159   -0.000001
  F      1.481706   -0.567862    0.000001
  F     -1.481017   -0.570245    0.000001
  F     -0.001540    0.286760    1.730672
  F     -0.001540    0.286757   -1.730672
*
