! PBE def2-TZVP Opt

* xyz 0 1
P  0.0000  0.0000  0.0000  # Phosphorus (P)
F  0.0000  1.7190  0.0000  # Equatorial Fluorine (F1)
F  1.6604 -0.4449  0.0000  # Equatorial Fluorine (F2)
F -1.6604 -0.4449  0.0000  # Equatorial Fluorine (F3)
F  0.0000  0.0000  1.6680  # Axial Fluorine (F4)
F  0.0000  0.0000 -1.6680  # Axial Fluorine (F5)
*
