! PBE def2-TZVP Opt

* xyz 0 1
Sb  0.0000  0.0000  0.0000  # Antimony (Sb)
Cl  0.0000  2.2770  0.0000  # Equatorial Chlorine (Cl1) 
Cl  1.9719 -1.1385  0.0000  # Equatorial Chlorine (Cl2)
Cl -1.9719 -1.1385  0.0000  # Equatorial Chlorine (Cl3)
Cl  0.0000  0.0000  2.3380  # Axial Chlorine (Cl4)
Cl  0.0000  0.0000 -2.3380  # Axial Chlorine (Cl5)
*
