! PBE def2-TZVP

* xyz 0 1
  As    -0.000000   -0.000055   -0.000000
  F      0.000000    1.710807   -0.000000
  F      1.481818   -0.855206    0.000000
  F     -1.481818   -0.855206    0.000000
  F      0.000000   -0.000170    1.730818
  F     -0.000000   -0.000170   -1.730818
*
