! PBE def2-TZVP 
! ScanTS

%geom
Scan
B 0 1 = 1.5340, 1.5770, 10
end
end

* xyz 0 1
P  0.0000  0.0000  0.0000  # Phosphorus (P)
F  0.0000  1.5340  0.0000  # Equatorial Fluorine (F1)
F  1.3285 -0.7670  0.0000  # Equatorial Fluorine (F2)
F -1.3285 -0.7670  0.0000  # Equatorial Fluorine (F3)
F  0.0000  0.0000  1.5770  # Axial Fluorine (F4)
F  0.0000  0.0000 -1.5770  # Axial Fluorine (F5)
*
