! PBE def2-TZVP

* xyz 0 1
  Sb    -0.000000    0.000127    0.000000
  Cl    -0.000000    2.337519   -0.000000
  Cl     2.023604   -1.169297    0.000000
  Cl    -2.023604   -1.169297    0.000000
  Cl     0.000000    0.000474    2.374368
  Cl     0.000000    0.000474   -2.374368
*
