! PBE def2-TZVP

* xyz 0 1
  P     -0.000000    0.000246   -0.000000
  F      0.000000    1.566157    0.000000
  F      1.355301   -0.784033    0.000000
  F     -1.355301   -0.784033   -0.000000
  F     -0.000000    0.000831    1.601660
  F     -0.000000    0.000831   -1.601660
*
