! PBE def2-TZVP

* xyz 0 1
  As    -0.000000   -0.000390    0.000000
  Cl    -0.000000    2.177822   -0.000000
  Cl     1.887961   -1.087432   -0.000000
  Cl    -1.887961   -1.087432   -0.000000
  Cl    -0.000000   -0.001284    2.244990
  Cl    -0.000000   -0.001284   -2.244990
*
