! PBE def2-TZVP

* xyz 0 1
  P      0.000000   -0.043918   -0.000000
  F      0.000000    1.503458    0.000000
  F      1.554557   -0.383985    0.000000
  F     -1.554557   -0.383985    0.000000
  F     -0.000000   -0.383985    1.554557
  F     -0.000000   -0.383985   -1.554557
  
*
