! PBE def2-TZVP

* xyz 0 1
  As    -0.000022    0.350931    0.000000
  Cl     0.000350    2.529298   -0.000000
  Cl     1.886319   -0.738231    0.000000
  Cl    -1.886241   -0.738571    0.000000
  Cl    -0.000203    0.351287    2.245129
  Cl    -0.000203    0.351286   -2.245130
*
