! PBE def2-TZVP

* xyz 0 1
  P     -0.000000    0.022811   -0.000000
  Cl    -0.000000    2.046810   -0.000000
  Cl     2.065348   -0.415005    0.000000
  Cl    -2.065348   -0.415005    0.000000
  Cl     0.000000   -0.415005    2.065348
  Cl    -0.000000   -0.415005   -2.065348
*
