! PBE def2-TZVP

* xyz 0 1
  P      0.000000   -0.043956    0.000000
  F     -0.000000    1.503423    0.000000
  F      1.554077   -0.385519   -0.000000
  F     -1.554077   -0.385519   -0.000000
  F     -0.000000   -0.382414    1.555033
  F     -0.000000   -0.382414   -1.555033
*
