! PBE def2-TZVP

* xyz 0 1
  P     -0.000000   -0.000011    0.000000
  Cl     0.000000    2.050098    0.000000
  Cl     1.775350   -1.025161    0.000000
  Cl    -1.775350   -1.025161   -0.000000
  Cl    -0.000000    0.000117    2.146692
  Cl    -0.000000    0.000117   -2.146692
*
