! PBE def2-TZVP

* xyz 0 1
  Sb     0.000000   -0.072745    0.000000
  Cl    -0.000000    2.239955   -0.000000
  Cl     2.311771   -0.569753    0.000000
  Cl    -2.311771   -0.569753    0.000000
  Cl     0.000000   -0.569753    2.311771
  Cl     0.000000   -0.569753   -2.311771
*
