! PBE def2-TZVP Freq

* xyz 0 1
# the coordinate is to be determined by visualizing trj file of pesscan
*
