! PBE def2-TZVP

* xyz 0 1
# optimized coordinates from PF5_opt.inp
*
