! PBE def2-TZVP Opt

* xyz 0 1
P  0.0000  0.0000  0.0000
F  0.0000  1.5340  0.0000
F  1.3285 -0.7670  0.0000
F -1.3285 -0.7670  0.0000
F  0.0000  0.0000  1.5770
F  0.0000  0.0000 -1.5770
*
