! PBE def2-TZVP 

* xyz 0 1
P 0.000000    0.000438    0.000000
F 0.000000    2.959621   -0.000000
F 2.561312   -1.481482    0.000000
F-2.561312   -1.481482   -0.000000
F-0.000000    0.001453    3.027097
F-0.000000    0.001453   -3.027097
*
