! XTB2

%geom
  Constraints
    {B 1 2 C}
  end
  Scan
    B 1 3 = 1.534, 1.577, 0.01
    B 1 4 = 1.534, 1.577, 0.01
    B 1 5 = 1.577, 1.534, 0.01
    B 1 6 = 1.577, 1.534, 0.01
    A 4 1 5 = 0, 360, 10
  end
end

* xyz 0 1
P  0.0000  0.0000  0.0000
F  0.0000  1.5340  0.0000
F  1.3285 -0.7670  0.0000
F -1.3285 -0.7670  0.0000
F  0.0000  0.0000  1.5770
F  0.0000  0.0000 -1.5770
*